[[90024170,205437284,267058550,357915090,440342565,516438491,579491364,645885730,749112129,797429306,899683579,949970768],[101185644,205833528,268182749,388155241,440670104,527210532,589635634,673570427,749375247,797645767,903722549,944605364],[121449557,207659617,273437577,391796692,451293411,528065248,590253108,676860803,759585529,800199097,907889722,938864215],[154649474,212854333,297688535,399513040,464273198,541634076,605239550,692231696,766084831,810987938,913442868,926509927],[56724914,176750242,219390769,259491019,314282302,327640335,403857021,407585305,417445747,476691087,487195041,488199413,556848802],[273881,5969467,63530088,319428814,553458491,571811436,632147771,693183808,719925630,773111881,815867043,835595245,974083809],[10309146,62622238,160545433,185489096,231779694,611452932,635325627,715804572,767660199,791760900,833523676,957567427,972501576],[46657026,74930784,203995979,260479787,341111629,437313477,515111873,576066437,639442135,734837444,796948325,864079663,954481195]]